\ Model ParcelCenterOptimization_copy
\ LP format - for model browsing. Use MPS format to capture full model detail.
Minimize
 
Subject To
 FlowConservationIn_15.1.1.PZ: y[15.1.1.PZ,01.1.1.PZ] + slack_in[15.1.1.PZ]
   = 0
 TotalQuantity_7705198: 1200 y[15.1.1.PZ,01.1.1.PZ] >= 1424
Bounds
 y[15.1.1.PZ,01.1.1.PZ] free
Generals
 y[15.1.1.PZ,01.1.1.PZ]
End
